29	0

0	2	2	3
4	2	4	6
7	2	4	6
4	1	5
4	2	7	9
10	1	8
1	1	8
9	2	10	11
6	2	10	11
9	3	12	13	14
10	3	12	13	15
7	2	16	17
10	1	16
7	1	15
2	2	16	17
6	2	18	19
8	2	18	19
10	2	21	22
7	1	20
3	2	21	22
3	1	23
3	1	23
2	2	24	25
9	1	27
6	1	26
2	1	27
2	1	28
5	1	29
0	0
